
<<< setup


<<< generate

Version identifier: 12.10.0.0 | 2019-11-26 | 843d4de2ae
CPXPARAM_TimeLimit                               1200
Tried aggregator 2 times.
MIP Presolve eliminated 5189354 rows and 2957358 columns.
MIP Presolve modified 422370 coefficients.
Aggregator did 1023 substitutions.
Reduced MIP has 60273 rows, 60669 columns, and 376807 nonzeros.
Reduced MIP has 60619 binaries, 0 generals, 0 SOSs, and 0 indicators.
Presolve time = 6.52 sec. (3735.06 ticks)
Found incumbent of value 0.000000 after 9.42 sec. (4670.27 ticks)
Probing fixed 1359 vars, tightened 0 bounds.
Probing time = 5.70 sec. (1121.02 ticks)
Tried aggregator 2 times.
Detecting symmetries...
MIP Presolve eliminated 1285 rows and 1361 columns.
Aggregator did 8 substitutions.
Reduced MIP has 58980 rows, 59300 columns, and 368419 nonzeros.
Reduced MIP has 59250 binaries, 0 generals, 0 SOSs, and 0 indicators.
Presolve time = 0.56 sec. (351.44 ticks)
Probing fixed 145 vars, tightened 0 bounds.
Probing time = 2.36 sec. (466.48 ticks)
Clique table members: 208514.
MIP emphasis: balance optimality and feasibility.
MIP search method: dynamic search.
Parallel mode: deterministic, using up to 4 threads.
Root relaxation solution time = 2.95 sec. (1743.25 ticks)

        Nodes                                         Cuts/
   Node  Left     Objective  IInf  Best Integer    Best Bound    ItCnt     Gap

*     0+    0                            0.0000   140720.0000              --- 
      0     0   140720.0000  1001        0.0000   140720.0000     9427     --- 
*     0+    0                         9977.0000   140720.0000              --- 
      0     0   140720.0000  1001     9977.0000      Cuts: 19    19048     --- 
      0     0   140720.0000  1001     9977.0000     Cuts: 269    34807     --- 
Heuristic still looking.
Heuristic still looking.
      0     2   140720.0000   735     9977.0000   140720.0000    50006     --- 
Elapsed time = 366.22 sec. (220241.36 ticks, tree = 0.02 MB, solutions = 2)
      1     3   140720.0000  1241     9977.0000   140720.0000    68137     --- 
      2     3   140720.0000   764     9977.0000   140720.0000    74040     --- 
      3     5   140720.0000   768     9977.0000   140720.0000   105796     --- 
      4     4   140720.0000   799     9977.0000   140720.0000    81856     --- 
      5     6   140720.0000   868     9977.0000   140720.0000   124175     --- 
      6     5   140720.0000  1002     9977.0000   140720.0000   106656     --- 
      7     4   140720.0000   789     9977.0000   140720.0000    87484     --- 
     11    10   140720.0000  1054     9977.0000   140720.0000   146740     --- 
     13    11   140720.0000   882     9977.0000   140720.0000   146896     --- 
     22    13   140720.0000   964     9977.0000   140720.0000   193023     --- 
Elapsed time = 447.91 sec. (257088.42 ticks, tree = 0.14 MB, solutions = 2)
     24    14   140720.0000   932     9977.0000   140720.0000   193697     --- 
     29    13   140720.0000   875     9977.0000   140720.0000   156034     --- 
     33    12   140720.0000   900     9977.0000   140720.0000   183725     --- 
     36    13   140720.0000   949     9977.0000   140720.0000   191279     --- 
     40    11   140720.0000   986     9977.0000   140720.0000   164360     --- 
     43    16   140720.0000   916     9977.0000   140720.0000   196826     --- 
     47    18   140720.0000   979     9977.0000   140720.0000   205037     --- 
     52    22   140720.0000   909     9977.0000   140720.0000   215035     --- 
     59    24   140720.0000   917     9977.0000   140720.0000   215679     --- 
     65    38   140720.0000   943     9977.0000   140720.0000   262289     --- 
Elapsed time = 484.81 sec. (270424.49 ticks, tree = 0.58 MB, solutions = 2)
     67    25   140720.0000   976     9977.0000   140720.0000   223938     --- 
     72    55   140720.0000  1026     9977.0000   140720.0000   322659     --- 
     75    42   140720.0000   989     9977.0000   140720.0000   275874     --- 
     78    44   140720.0000   987     9977.0000   140720.0000   277859     --- 
     81    46   140720.0000  1134     9977.0000   140720.0000   284425     --- 
     82    56   140720.0000   916     9977.0000   140720.0000   340293     --- 
     84    55   140720.0000   843     9977.0000   140720.0000   331635     --- 
     87    75   140720.0000  1169     9977.0000   140720.0000   410458     --- 
     95    78   140720.0000   898     9977.0000   140720.0000   416881     --- 
    100    79   140720.0000  1042     9977.0000   140720.0000   424435     --- 
Elapsed time = 524.22 sec. (288287.79 ticks, tree = 1.24 MB, solutions = 2)
    105    79   140720.0000  1001     9977.0000   140720.0000   426481     --- 
    111    79   140720.0000   988     9977.0000   140720.0000   437521     --- 
    112    78   140720.0000   913     9977.0000   140720.0000   424305     --- 
    115    81   140720.0000   965     9977.0000   140720.0000   439839     --- 
    118    89   140720.0000   846     9977.0000   140720.0000   487623     --- 
    123    84   140720.0000  1094     9977.0000   140720.0000   450401     --- 
    127   103   140720.0000   913     9977.0000   140720.0000   561316     --- 
    130    90   140720.0000   834     9977.0000   140720.0000   491003     --- 
    135    99   140720.0000   870     9977.0000   140720.0000   540506     --- 
    136    93   140720.0000  1062     9977.0000   140720.0000   501120     --- 
Elapsed time = 553.09 sec. (301997.34 ticks, tree = 2.40 MB, solutions = 2)
    140   117   140720.0000   844     9977.0000   140720.0000   601605     --- 
    141   110   140720.0000   928     9977.0000   140720.0000   589159     --- 
    142   111   140720.0000   942     9977.0000   140720.0000   590899     --- 
    143   118   140720.0000   876     9977.0000   140720.0000   607716     --- 
    144   120   140720.0000   977     9977.0000   140720.0000   620157     --- 
    147   125   140720.0000   898     9977.0000   140720.0000   626558     --- 
    149   127   140720.0000   961     9977.0000   140720.0000   629780     --- 
    151   112   140720.0000  1137     9977.0000   140720.0000   607830     --- 
    153   127    infeasible           9977.0000   140720.0000   660259     --- 
    155   124    infeasible           9977.0000   140720.0000   638708     --- 
Elapsed time = 616.05 sec. (321436.33 ticks, tree = 2.88 MB, solutions = 2)
    156   126    infeasible           9977.0000   140720.0000   661107     --- 
    157   130   140720.0000   871     9977.0000   140720.0000   647278     --- 
    159   130    infeasible           9977.0000   140720.0000   684603     --- 
    160   129    infeasible           9977.0000   140720.0000   684776     --- 
    162   137   140720.0000   995     9977.0000   140720.0000   706803     --- 
    163   138   140720.0000  1089     9977.0000   140720.0000   709766     --- 
    165   134   140720.0000   907     9977.0000   140720.0000   694530     --- 
    167   138   140720.0000   966     9977.0000   140720.0000   722968     --- 
    170   127   140720.0000   916     9977.0000   140720.0000   676431     --- 
    173   139   140720.0000   989     9977.0000   140720.0000   731686     --- 
Elapsed time = 712.69 sec. (348941.26 ticks, tree = 3.36 MB, solutions = 2)
    175   138   140720.0000   910     9977.0000   140720.0000   761162     --- 
    176   139   140720.0000  1001     9977.0000   140720.0000   768930     --- 
    180   136   140720.0000   893     9977.0000   140720.0000   717932     --- 
    182   144   140720.0000  1027     9977.0000   140720.0000   786790     --- 
    185   141   140720.0000   973     9977.0000   140720.0000   782208     --- 
    192   150   140720.0000  1050     9977.0000   140720.0000   814950     --- 
    196   145   140720.0000   976     9977.0000   140720.0000   803944     --- 
    198   147   140720.0000  1260     9977.0000   140720.0000   813227     --- 
    202   155   140720.0000   916     9977.0000   140720.0000   862540     --- 
    205   158   140720.0000   949     9977.0000   140720.0000   869593     --- 
Elapsed time = 754.19 sec. (366758.39 ticks, tree = 3.72 MB, solutions = 2)
    207   142   140720.0000   940     9977.0000   140720.0000   741089     --- 
    211   162   140720.0000  1196     9977.0000   140720.0000   888882     --- 
    216   165   140720.0000  1116     9977.0000   140720.0000   924068     --- 
    217   164   140720.0000  1000     9977.0000   140720.0000   901412     --- 
    222   163   140720.0000   893     9977.0000   140720.0000   882928     --- 
    225   178   140720.0000   992     9977.0000   140720.0000   986803     --- 
    228   167   140720.0000  1061     9977.0000   140720.0000   931236     --- 
    229   168   140720.0000  1021     9977.0000   140720.0000   936339     --- 
    234   169   140720.0000   999     9977.0000   140720.0000   938706     --- 
    235   170   140720.0000  1004     9977.0000   140720.0000   947562     --- 
Elapsed time = 804.55 sec. (385855.15 ticks, tree = 5.40 MB, solutions = 2)
    239   183   140720.0000   964     9977.0000   140720.0000  1002604     --- 
    240   185   140720.0000  1069     9977.0000   140720.0000  1013903     --- 
    242   184   140720.0000   954     9977.0000   140720.0000  1011773     --- 
    243   185   140720.0000   975     9977.0000   140720.0000  1015696     --- 
    245   187   140720.0000  1101     9977.0000   140720.0000  1019446     --- 
    249   196   140720.0000   899     9977.0000   140720.0000  1048999     --- 
    250   197   140720.0000   944     9977.0000   140720.0000  1058319     --- 
    253   198   140720.0000   939     9977.0000   140720.0000  1062756     --- 
    254   152   140720.0000   958     9977.0000   140720.0000   822613     --- 
    260   207   140720.0000  1014     9977.0000   140720.0000  1086394     --- 
Elapsed time = 852.72 sec. (407390.90 ticks, tree = 8.60 MB, solutions = 2)
    262   201   140720.0000   997     9977.0000   140720.0000  1077864     --- 
    264   203   140720.0000   873     9977.0000   140720.0000  1078724     --- 
    268   211   140720.0000   987     9977.0000   140720.0000  1105455     --- 
    272   213   140720.0000   965     9977.0000   140720.0000  1114114     --- 
    275   215   140720.0000   986     9977.0000   140720.0000  1124788     --- 
    277   215   140720.0000   977     9977.0000   140720.0000  1125584     --- 
    281   219   140720.0000   868     9977.0000   140720.0000  1155934     --- 
    284   220   140720.0000   789     9977.0000   140720.0000  1156126     --- 
    293   221   140720.0000  1038     9977.0000   140720.0000  1148972     --- 
    303   222   140720.0000   760     9977.0000   140720.0000  1159073     --- 
Elapsed time = 892.06 sec. (424740.48 ticks, tree = 9.08 MB, solutions = 2)
    321   223    infeasible           9977.0000   140720.0000  1161388     --- 
    334   226    infeasible           9977.0000   140720.0000  1163482     --- 
    348   227    infeasible           9977.0000   140720.0000  1165653     --- 
    354   235    infeasible           9977.0000   140720.0000  1201601     --- 
    371   231   140720.0000   709     9977.0000   140720.0000  1170366     --- 
    383   238    infeasible           9977.0000   140720.0000  1206497     --- 
    406   253   140720.0000   731     9977.0000   140720.0000  1244971     --- 
    423   240    infeasible           9977.0000   140720.0000  1209293     --- 
    444   259   140720.0000   702     9977.0000   140720.0000  1260976     --- 
    465   240    infeasible           9977.0000   140720.0000  1213141     --- 
Elapsed time = 994.00 sec. (468379.32 ticks, tree = 10.98 MB, solutions = 2)
    474   284   140720.0000   802     9977.0000   140720.0000  1347462     --- 
    493   298   140720.0000   661     9977.0000   140720.0000  1350118     --- 
    505   295   140720.0000   730     9977.0000   140720.0000  1371991     --- 
    522   298    infeasible           9977.0000   140720.0000  1354681     --- 
    541   296   140720.0000   686     9977.0000   140720.0000  1360154     --- 
    558   299    infeasible           9977.0000   140720.0000  1358937     --- 
    576   300   140720.0000   684     9977.0000   140720.0000  1360988     --- 
    598   323   140720.0000   790     9977.0000   140720.0000  1397563     --- 
    613   315   140720.0000   670     9977.0000   140720.0000  1403151     --- 
    635   318   140720.0000   681     9977.0000   140720.0000  1405240     --- 
Elapsed time = 1080.11 sec. (508977.47 ticks, tree = 15.48 MB, solutions = 2)
    650   319   140720.0000   632     9977.0000   140720.0000  1407429     --- 
    659   310    infeasible           9977.0000   140720.0000  1418680     --- 
    674   313    infeasible           9977.0000   140720.0000  1429814     --- 
    685   314   140720.0000   670     9977.0000   140720.0000  1432351     --- 
    703   333   140720.0000   681     9977.0000   140720.0000  1442565     --- 
    724   332    infeasible           9977.0000   140720.0000  1445098     --- 
    748   339   140720.0000   669     9977.0000   140720.0000  1452430     --- 
Starting limited solution polishing.
    767   339    infeasible           9977.0000   140720.0000  1479276     --- 
    775   337    infeasible           9977.0000   140720.0000  1481863     --- 
    790   344   140720.0000   703     9977.0000   140720.0000  1488976     --- 
Elapsed time = 1171.91 sec. (551374.45 ticks, tree = 16.10 MB, solutions = 2)
    813   342    infeasible           9977.0000   140720.0000  1490409     --- 
    816   337    infeasible           9977.0000   140720.0000  1486466     --- 
    827   338   140720.0000   731     9977.0000   140720.0000  1516589     --- 

Clique cuts applied:  5
Implied bound cuts applied:  507
Flow cuts applied:  12
Mixed integer rounding cuts applied:  3

Root node processing (before b&c):
  Real time             =  350.45 sec. (207777.22 ticks)
Parallel b&c, 4 threads:
  Real time             =  850.09 sec. (357440.78 ticks)
  Sync time (average)   =   89.37 sec.
  Wait time (average)   =    0.00 sec.
                          ------------
Total (root+branch&cut) = 1200.55 sec. (565218.00 ticks)

<<< solve


OBJECTIVE: 9977

<<< post process


<<< done

